JulietBench/Juliet_Based_Patch_Bench/linux/CWE-189-Numeric-Errors/CVE_2010_3859_8acfe468b0384e834a303f08ebc4953d72fb690a/solververify_iovec_Snippet_patch1.smt2
; benchmark generated from python API
(set-info :status unknown)
(declare-fun rdi () (_ BitVec 64))
(declare-fun R () (_ BitVec 32))
(assert
 (let ((?x6 ((_ extract 31 0) rdi)))
 (let ((?x64 (bvmul (_ bv3 32) ?x6)))
 (let (($x173 (= R ?x64)))
 (let ((?x38 ((_ extract 31 31) rdi)))
 (let ((?x228 (concat (concat (concat (concat (concat ?x38 ?x38) ?x38) ?x38) ?x38) ?x38)))
 (let ((?x226 (concat (concat (concat (concat (concat ?x228 ?x38) ?x38) ?x38) ?x38) ?x38)))
 (let ((?x242 (concat (concat (concat (concat (concat ?x226 ?x38) ?x38) ?x38) ?x38) ?x38)))
 (let ((?x247 (concat (concat (concat (concat (concat ?x242 ?x38) ?x38) ?x38) ?x38) ?x38)))
 (let ((?x252 (concat (concat (concat (concat (concat ?x247 ?x38) ?x38) ?x38) ?x38) ?x38)))
 (let ((?x257 (concat (concat (concat (concat (concat ?x252 ?x38) ?x38) ?x38) ?x38) ?x38)))
 (let ((?x259 (concat (concat ?x257 ?x38) ?x6)))
 (let (($x261 (bvule ?x259 (_ bv2147483647 64))))
 (let ((?x381 (bvsub (_ bv2147483647 32) ?x6)))
 (let ((?x387 ((_ sign_extend 32) ?x381)))
 (let (($x393 (bvule ?x259 ?x387)))
 (let ((?x67 (bvmul (_ bv2 32) ?x6)))
 (let ((?x714 (bvsub (_ bv2147483647 32) ?x67)))
 (let ((?x715 ((_ sign_extend 32) ?x714)))
 (let (($x1442 (bvule ?x259 ?x715)))
 (let (($x172 (and $x1442 $x393 $x261 $x173)))
 (let (($x169 (= (_ bv2147483647 32) R)))
 (let (($x1686 (bvugt ?x259 ?x715)))
 (let (($x171 (and $x1686 $x393 $x261 $x169)))
 (let ((?x389 (bvmul (_ bv4294967295 32) ?x6)))
 (let ((?x495 (bvadd (_ bv4294967294 32) ?x389)))
 (let (($x152 (= R ?x495)))
 (let (($x706 (bvugt ?x259 ?x387)))
 (let ((?x390 (bvadd (_ bv2147483647 32) ?x389)))
 (let ((?x391 ((_ extract 31 31) ?x390)))
 (let ((?x1675 (concat (concat (concat (concat (concat ?x391 ?x391) ?x391) ?x391) ?x391) ?x391)))
 (let ((?x1690 (concat (concat (concat (concat (concat ?x1675 ?x391) ?x391) ?x391) ?x391) ?x391)))
 (let ((?x1652 (concat (concat (concat (concat (concat ?x1690 ?x391) ?x391) ?x391) ?x391) ?x391)))
 (let ((?x1667 (concat (concat (concat (concat (concat ?x1652 ?x391) ?x391) ?x391) ?x391) ?x391)))
 (let ((?x1709 (concat (concat (concat (concat (concat ?x1667 ?x391) ?x391) ?x391) ?x391) ?x391)))
 (let ((?x1657 (concat (concat (concat (concat (concat ?x1709 ?x391) ?x391) ?x391) ?x391) ?x391)))
 (let ((?x1637 (concat (concat ?x1657 ?x391) ?x390)))
 (let (($x1634 (bvule ?x1637 (_ bv0 64))))
 (let (($x165 (and $x1634 $x706 $x261 $x152)))
 (let (($x1757 (bvugt ?x1637 (_ bv0 64))))
 (let (($x153 (and $x1757 $x706 $x261 $x169)))
 (let (($x376 (bvugt ?x259 (_ bv2147483647 64))))
 (let (($x170 (and $x376 $x169)))
 (let (($x175 (or $x170 $x153 $x165 $x171 $x172)))
 (let (($x178 (not $x175)))
 (let (($x161 (= (_ bv4294967256 32) R)))
 (let ((?x7 ((_ zero_extend 32) ?x6)))
 (let ((?x11 (bvlshr ?x7 (_ bv31 64))))
 (let ((?x20 ((_ extract 0 0) ?x11)))
 (let ((?x27 (bvand ?x20 (_ bv1 1))))
 (let (($x26 (and (distinct (_ bv0 1) ?x27) true)))
 (let (($x159 (and $x26 $x161)))
 (let (($x53 (= (_ bv0 1) ?x27)))
 (let ((?x68 ((_ zero_extend 32) ?x67)))
 (let ((?x70 (bvlshr ?x68 (_ bv31 64))))
 (let ((?x71 ((_ extract 0 0) ?x70)))
 (let ((?x72 (bvand ?x71 (_ bv1 1))))
 (let (($x73 (and (distinct (_ bv0 1) ?x72) true)))
 (let (($x158 (and $x73 $x53 $x161)))
 (let (($x149 (= (_ bv0 1) ?x72)))
 (let ((?x60 ((_ zero_extend 32) ?x64)))
 (let ((?x151 (bvlshr ?x60 (_ bv31 64))))
 (let ((?x155 ((_ extract 0 0) ?x151)))
 (let ((?x156 (bvand ?x155 (_ bv1 1))))
 (let (($x157 (and (distinct (_ bv0 1) ?x156) true)))
 (let (($x160 (and $x157 $x149 $x53 $x161)))
 (let (($x225 (= (_ bv0 1) ?x156)))
 (let (($x85 (and $x225 $x149 $x53 $x173)))
 (let (($x168 (or $x85 $x160 $x158 $x159)))
 (let (($x177 (not $x168)))
 (let (($x179 (and $x177 $x178)))
 (let (($x176 (and $x168 $x175)))
 (let (($x180 (or $x176 $x179)))
 (not $x180))))))))))))))))))))))))))))))))))))))))))))))))))))))))))))))))))))))))))
(check-sat)
